\* Problem: TOY *\

Maximize
 obj: + M

Subject To
 B: + R1 - R2 - R3 = 0
 r_2: - 8 M + R1 >= 0
 r_3: + 2 M + R1 <= 10
 r_4: - 6 M + R2 >= 0
 r_5: + 4 M + R2 <= 10
 r_6: - 4 M + R3 >= 0
 r_7: + 6 M + R3 <= 10

Bounds
 0 <= R1 <= 10
 0 <= R2 <= 9999
 0 <= R3 <= 9999

End
